
Gurobi 8.1.1 (win64) logging started 07/06/20 14:31:41

Changed value of parameter LogFile to Results/sslp2_20_100_200_BendersBnC.log
   Prev: gurobi.log  Default: 
Changed value of parameter Heuristics to 0.0
   Prev: 0.05  Min: 0.0  Max: 1.0  Default: 0.05
Changed value of parameter lazyConstraints to 1
   Prev: 0  Min: 0  Max: 1  Default: 0
Changed value of parameter timeLimit to 7185.395067691803
   Prev: 1e+100  Min: 0.0  Max: 1e+100  Default: 1e+100
Optimize a model with 2152 rows, 220 columns and 24679 nonzeros
Variable types: 200 continuous, 20 integer (20 binary)
Coefficient statistics:
  Matrix range     [4e-13, 2e+06]
  Objective range  [5e-03, 8e+01]
  Bounds range     [1e+00, 1e+00]
  RHS range        [2e-13, 7e+04]
Warning: Model contains large matrix coefficient range
         Consider reformulating model or setting NumericFocus parameter
         to avoid numerical issues.
Presolve removed 280 rows and 0 columns
Presolve time: 0.02s
Presolved: 1872 rows, 220 columns, 23722 nonzeros
Variable types: 200 continuous, 20 integer (20 binary)

Root relaxation: objective -1.146197e+03, 243 iterations, 0.03 seconds

    Nodes    |    Current Node    |     Objective Bounds      |     Work
 Expl Unexpl |  Obj  Depth IntInf | Incumbent    BestBd   Gap | It/Node Time

     0     0 -1146.1967    0   13          - -1146.1967      -     -    0s
     0     0 -1145.8838    0   13          - -1145.8838      -     -    0s
     0     0 -1145.6476    0   13          - -1145.6476      -     -    0s
     0     0 -1145.4194    0   13          - -1145.4194      -     -    0s
     0     0 -1145.3247    0   13          - -1145.3247      -     -    0s
     0     0 -1145.2002    0   13          - -1145.2002      -     -    0s
     0     0 -1145.0975    0   13          - -1145.0975      -     -    0s
     0     0 -1145.0023    0   13          - -1145.0023      -     -    0s
     0     0 -1144.9092    0   11          - -1144.9092      -     -    0s
     0     0 -1144.8406    0   12          - -1144.8406      -     -    0s
     0     0 -1144.7777    0   12          - -1144.7777      -     -    0s
     0     0 -1144.7292    0   12          - -1144.7292      -     -    0s
     0     0 -1144.6450    0   12          - -1144.6450      -     -    0s
     0     0 -1144.5873    0   12          - -1144.5873      -     -    0s
     0     0 -1144.5171    0   12          - -1144.5171      -     -    0s
     0     0 -1144.4696    0   12          - -1144.4696      -     -    0s
     0     0 -1144.4416    0   11          - -1144.4416      -     -    0s
     0     0 -1144.4117    0   11          - -1144.4117      -     -    0s
     0     0 -1144.3816    0   12          - -1144.3816      -     -    0s
     0     0 -1144.3552    0   12          - -1144.3552      -     -    0s
     0     0 -1144.3399    0   12          - -1144.3399      -     -    0s
     0     0 -1144.2987    0   12          - -1144.2987      -     -    0s
     0     0 -1144.2718    0   12          - -1144.2718      -     -    0s
     0     0 -1144.2538    0   11          - -1144.2538      -     -    0s
     0     0 -1144.2321    0   11          - -1144.2321      -     -    0s
     0     0 -1144.2211    0   11          - -1144.2211      -     -    0s
     0     0 -1144.2206    0   11          - -1144.2206      -     -    0s
     0     0 -1144.2202    0   11          - -1144.2202      -     -    0s
     0     0 -1143.5332    0   12          - -1143.5332      -     -    1s
     0     0 -1143.3812    0   12          - -1143.3812      -     -    1s
     0     0 -1143.3260    0   12          - -1143.3260      -     -    1s
     0     0 -1143.2798    0   12          - -1143.2798      -     -    1s
     0     0 -1143.2326    0   13          - -1143.2326      -     -    1s
     0     0 -1143.1867    0   13          - -1143.1867      -     -    1s
     0     0 -1143.1220    0   13          - -1143.1220      -     -    1s
     0     0 -1143.0682    0   13          - -1143.0682      -     -    1s
     0     0 -1143.0176    0   12          - -1143.0176      -     -    1s
     0     0 -1142.9592    0   13          - -1142.9592      -     -    1s
     0     0 -1142.9223    0   11          - -1142.9223      -     -    1s
     0     0 -1142.8852    0   13          - -1142.8852      -     -    1s
     0     0 -1142.8193    0   13          - -1142.8193      -     -    1s
     0     0 -1142.7726    0   13          - -1142.7726      -     -    1s
     0     0 -1142.7372    0   13          - -1142.7372      -     -    2s
     0     0 -1142.7106    0   13          - -1142.7106      -     -    2s
     0     0 -1142.6630    0   13          - -1142.6630      -     -    2s
     0     0 -1142.6354    0   13          - -1142.6354      -     -    2s
     0     0 -1142.6104    0   13          - -1142.6104      -     -    2s
     0     0 -1142.5517    0   12          - -1142.5517      -     -    2s
     0     0 -1142.5292    0   13          - -1142.5292      -     -    2s
     0     0 -1142.5057    0   10          - -1142.5057      -     -    2s
     0     0 -1142.4698    0   11          - -1142.4698      -     -    2s
     0     0 -1142.4626    0   12          - -1142.4626      -     -    2s
     0     0 -1142.4369    0   12          - -1142.4369      -     -    2s
     0     0 -1142.3951    0   12          - -1142.3951      -     -    2s
     0     0 -1142.3854    0   12          - -1142.3854      -     -    2s
     0     0 -1142.3640    0   12          - -1142.3640      -     -    2s
     0     0 -1142.3368    0   12          - -1142.3368      -     -    2s
     0     0 -1142.3177    0   12          - -1142.3177      -     -    2s
     0     0 -1142.2957    0   12          - -1142.2957      -     -    2s
     0     0 -1142.2778    0   11          - -1142.2778      -     -    2s
     0     0 -1142.2624    0   12          - -1142.2624      -     -    2s
     0     0 -1142.1998    0   12          - -1142.1998      -     -    2s
     0     0 -1142.1619    0   12          - -1142.1619      -     -    2s
     0     0 -1142.1342    0   12          - -1142.1342      -     -    2s
     0     0 -1142.1165    0   11          - -1142.1165      -     -    2s
     0     0 -1142.0853    0   12          - -1142.0853      -     -    2s
     0     0 -1142.0450    0   11          - -1142.0450      -     -    2s
     0     0 -1142.0062    0   11          - -1142.0062      -     -    2s
     0     0 -1141.9864    0   12          - -1141.9864      -     -    2s
     0     0 -1141.9669    0   12          - -1141.9669      -     -    2s
     0     0 -1141.9310    0   12          - -1141.9310      -     -    2s
     0     0 -1141.9224    0   11          - -1141.9224      -     -    2s
     0     0 -1141.9102    0   12          - -1141.9102      -     -    2s
     0     0 -1141.9040    0   11          - -1141.9040      -     -    2s
     0     0 -1141.8972    0   11          - -1141.8972      -     -    2s
     0     0 -1141.8800    0   12          - -1141.8800      -     -    2s
     0     0 -1141.8677    0   11          - -1141.8677      -     -    2s
     0     0 -1141.8590    0   11          - -1141.8590      -     -    2s
     0     0 -1141.8501    0   12          - -1141.8501      -     -    2s
     0     0 -1141.8397    0   12          - -1141.8397      -     -    2s
     0     0 -1141.8320    0   11          - -1141.8320      -     -    2s
     0     0 -1141.8164    0   11          - -1141.8164      -     -    2s
     0     0 -1141.7993    0   11          - -1141.7993      -     -    2s
     0     0 -1141.7821    0   12          - -1141.7821      -     -    2s
     0     0 -1141.7694    0   12          - -1141.7694      -     -    2s
     0     0 -1141.7602    0   12          - -1141.7602      -     -    2s
     0     0 -1141.7551    0   10          - -1141.7551      -     -    2s
     0     0 -1141.7540    0   11          - -1141.7540      -     -    2s
     0     0 -1141.7461    0   11          - -1141.7461      -     -    2s
     0     0 -1141.7439    0   12          - -1141.7439      -     -    2s
     0     0 -1141.7306    0   12          - -1141.7306      -     -    2s
     0     0 -1141.7276    0   11          - -1141.7276      -     -    2s
     0     0 -1141.7250    0   12          - -1141.7250      -     -    2s
     0     0 -1141.7179    0   11          - -1141.7179      -     -    2s
     0     0 -1141.7168    0   12          - -1141.7168      -     -    2s
     0     0 -1141.7143    0   11          - -1141.7143      -     -    2s
     0     0 -1141.7104    0   10          - -1141.7104      -     -    2s
     0     0 -1141.7085    0   10          - -1141.7085      -     -    2s
     0     0 -1141.7069    0   10          - -1141.7069      -     -    2s
     0     0 -1141.7052    0   10          - -1141.7052      -     -    2s
     0     0 -1141.7018    0   10          - -1141.7018      -     -    2s
     0     0 -1141.7008    0   10          - -1141.7008      -     -    2s
     0     0 -1141.7003    0    9          - -1141.7003      -     -    2s
     0     0 -1141.6993    0   10          - -1141.6993      -     -    2s
     0     0 -1141.6984    0   10          - -1141.6984      -     -    2s
     0     0 -1141.6983    0   11          - -1141.6983      -     -    2s
     0     0 -1141.6537    0   11          - -1141.6537      -     -    2s
     0     0 -1141.6305    0   11          - -1141.6305      -     -    2s
     0     0 -1141.6129    0   11          - -1141.6129      -     -    2s
     0     0 -1141.5967    0    9          - -1141.5967      -     -    2s
     0     0 -1141.5908    0   10          - -1141.5908      -     -    2s
     0     0 -1141.5759    0   10          - -1141.5759      -     -    2s
     0     0 -1141.5664    0   10          - -1141.5664      -     -    2s
     0     0 -1141.5494    0   11          - -1141.5494      -     -    2s
     0     0 -1141.5338    0   10          - -1141.5338      -     -    2s
     0     0 -1141.5299    0   11          - -1141.5299      -     -    2s
     0     0 -1141.5254    0    9          - -1141.5254      -     -    2s
     0     0 -1141.5186    0   11          - -1141.5186      -     -    2s
     0     0 -1141.5161    0   10          - -1141.5161      -     -    2s
     0     0 -1141.5135    0    9          - -1141.5135      -     -    2s
     0     0 -1141.0715    0   11          - -1141.0715      -     -    4s
     0     0 -1140.9847    0   12          - -1140.9847      -     -    4s
     0     0 -1140.9190    0   12          - -1140.9190      -     -    4s
     0     0 -1140.8343    0   12          - -1140.8343      -     -    4s
     0     0 -1140.7691    0   12          - -1140.7691      -     -    4s
     0     0 -1140.7216    0   12          - -1140.7216      -     -    4s
     0     0 -1140.6782    0   12          - -1140.6782      -     -    4s
     0     0 -1140.5760    0   12          - -1140.5760      -     -    4s
     0     0 -1140.5536    0   12          - -1140.5536      -     -    4s
     0     0 -1140.4502    0   11          - -1140.4502      -     -    4s
     0     0 -1140.4276    0   12          - -1140.4276      -     -    4s
     0     0 -1140.3981    0   12          - -1140.3981      -     -    4s
     0     0 -1140.3740    0   11          - -1140.3740      -     -    4s
     0     0 -1140.3537    0   11          - -1140.3537      -     -    4s
     0     0 -1140.3250    0   11          - -1140.3250      -     -    4s
     0     0 -1140.3204    0   11          - -1140.3204      -     -    4s
     0     0 -1140.2838    0   11          - -1140.2838      -     -    4s
     0     0 -1140.2405    0   11          - -1140.2405      -     -    4s
     0     0 -1140.2200    0   10          - -1140.2200      -     -    4s
     0     0 -1140.2091    0   11          - -1140.2091      -     -    4s
     0     0 -1140.1851    0   10          - -1140.1851      -     -    4s
     0     0 -1140.1801    0   11          - -1140.1801      -     -    4s
     0     0 -1140.1679    0    9          - -1140.1679      -     -    4s
     0     0 -1140.1666    0   11          - -1140.1666      -     -    4s
     0     0 -1140.0842    0   11          - -1140.0842      -     -    4s
     0     0 -1140.0145    0   11          - -1140.0145      -     -    4s
     0     0 -1139.9529    0    9          - -1139.9529      -     -    4s
     0     0 -1139.8927    0   10          - -1139.8927      -     -    4s
     0     0 -1139.8624    0   11          - -1139.8624      -     -    4s
     0     0 -1139.8411    0   10          - -1139.8411      -     -    4s
     0     0 -1139.8054    0   10          - -1139.8054      -     -    4s
     0     0 -1139.7926    0    9          - -1139.7926      -     -    4s
     0     0 -1139.7546    0   11          - -1139.7546      -     -    4s
     0     0 -1139.7264    0    9          - -1139.7264      -     -    4s
     0     0 -1139.7090    0   10          - -1139.7090      -     -    4s
     0     0 -1139.6703    0    9          - -1139.6703      -     -    4s
     0     0 -1139.6567    0   10          - -1139.6567      -     -    4s
     0     0 -1139.6410    0   10          - -1139.6410      -     -    4s
     0     0 -1139.5891    0   11          - -1139.5891      -     -    4s
     0     0 -1139.5594    0   10          - -1139.5594      -     -    4s
     0     0 -1139.5475    0   11          - -1139.5475      -     -    5s
     0     0 -1139.5249    0   11          - -1139.5249      -     -    5s
     0     0 -1139.5081    0   11          - -1139.5081      -     -    5s
     0     0 -1139.4993    0   11          - -1139.4993      -     -    5s
     0     0 -1139.4817    0   11          - -1139.4817      -     -    5s
     0     0 -1139.4693    0   11          - -1139.4693      -     -    5s
     0     0 -1139.4584    0   12          - -1139.4584      -     -    5s
     0     0 -1139.4544    0   11          - -1139.4544      -     -    5s
     0     0 -1139.4059    0    9          - -1139.4059      -     -    5s
     0     0 -1139.3680    0   11          - -1139.3680      -     -    5s
     0     0 -1139.3444    0   10          - -1139.3444      -     -    5s
     0     0 -1139.3000    0   11          - -1139.3000      -     -    5s
     0     0 -1139.2744    0   11          - -1139.2744      -     -    5s
     0     0 -1139.2524    0   11          - -1139.2524      -     -    5s
     0     0 -1139.2334    0   11          - -1139.2334      -     -    5s
     0     0 -1139.2217    0   11          - -1139.2217      -     -    5s
     0     0 -1139.2085    0   12          - -1139.2085      -     -    5s
     0     0 -1139.1834    0   10          - -1139.1834      -     -    5s
     0     0 -1139.1799    0    9          - -1139.1799      -     -    5s
     0     0 -1139.1446    0   11          - -1139.1446      -     -    5s
     0     0 -1139.1245    0   11          - -1139.1245      -     -    5s
     0     0 -1139.1209    0   11          - -1139.1209      -     -    5s
     0     0 -1139.1154    0   11          - -1139.1154      -     -    5s
     0     2 -1139.1154    0   11          - -1139.1154      -     -    5s
     7     5 -1096.7796    3    2          - -1138.8733      -  49.9   10s
    15     4 -1052.2109    5    -          - -1138.8733      -  35.3   17s
    17     6 -1098.6103    4    -          - -1138.8733      -  32.2   21s
    22    11 -1044.7030    5    2          - -1138.8733      -  34.1   28s
    23    11 -1054.3712    4    -          - -1138.8733      -  33.2   30s
    29     9 -1088.4850    6    -          - -1138.8733      -  37.8   35s
    32    13 -1093.4515    5    -          - -1138.8733      -  35.6   40s
    37    16 -1045.8228    6    -          - -1138.8733      -  36.7   46s
    43    17 -1086.1941    8    -          - -1138.8733      -  36.3   53s
    45    15 -1044.2713    8    -          - -1138.8733      -  37.5   55s
    48    18 -1040.8119    8    -          - -1138.8733      -  36.4   60s
    52    19 -1084.0028    8    -          - -1138.8733      -  36.5   65s
    59    23 -1041.5883    9    -          - -1138.8733      -  36.6   71s
    66    25 -1033.9317    9    -          - -1138.8733      -  35.1   78s
    67    26 -1039.6583   14    -          - -1138.8733      -  35.5   80s
    71    27 -1029.6214    9    -          - -1138.8733      -  35.4   87s
    78    28 -1081.5501   10    -          - -1138.8733      -  37.0   91s
    81    30 -1039.6293   10    -          - -1138.8733      -  37.1   96s
    83    33 -1035.6550   10    -          - -1138.8733      -  37.3  100s
    90    33 -1036.3459   11    -          - -1138.8733      -  37.3  107s
    94    35 -1032.4752   11    -          - -1138.8733      -  36.8  113s
    97    34 -1031.2735   11    -          - -1138.8733      -  37.3  116s
   100    38 -1028.6063   11    -          - -1138.8733      -  39.3  120s
*  107    36              20    -787.2599789 -1138.8733  44.7%  44.4  126s
   116    36 -1030.0774   12    - -787.25998 -1138.8733  44.7%  44.4  135s
   124    41 -1077.0438   15    4 -787.25998 -1138.8733  44.7%  43.3  140s
   128    41 -1068.7104   17    - -787.25998 -1138.8733  44.7%  43.2  146s
   131    45 -1060.8024   17    3 -787.25998 -1138.8733  44.7%  42.9  150s
   135    46 -1044.2622   17    - -787.25998 -1138.8733  44.7%  42.6  155s
   145    48 -1022.7487   18    - -787.25998 -1138.8733  44.7%  42.3  161s
   150    54 -980.75918   18    - -787.25998 -1138.8733  44.7%  42.0  170s
   161    56     cutoff   19      -787.25998 -1136.9011  44.4%  44.5  178s
*  164    57              20    -796.1699787 -1136.9011  42.8%  45.1  181s
*  171    56              20    -800.5599773 -1136.8961  42.0%  47.0  187s
   180    56 -1034.9355    8    - -800.55998 -1135.1951  41.8%  47.2  200s
   189    62 -1132.4107    6   13 -800.55998 -1134.8251  41.8%  50.4  205s
   196    65 -1126.3054    9   11 -800.55998 -1134.8251  41.8%  52.7  210s
   208    67 -1117.2044   12    8 -800.55998 -1134.8251  41.8%  54.0  216s
   216    65 -1098.1467   14    6 -800.55998 -1134.8251  41.8%  55.8  221s
   222    68 -1083.5230   15    4 -800.55998 -1134.8251  41.8%  55.9  226s
   226    69 -1080.6477   16    - -800.55998 -1134.8251  41.8%  55.6  232s
   232    76 -1041.7706   16    1 -800.55998 -1134.8251  41.8%  55.6  238s
   236    80 -998.91163   17    1 -800.55998 -1134.8251  41.8%  56.2  240s
   253    85 -997.94399   19    1 -800.55998 -1134.8251  41.8%  56.3  250s
*  254    85              20    -835.2499782 -1134.8251  35.9%  56.9  252s
*  257    87              20    -835.3399782 -1134.8251  35.9%  57.8  257s
   261    88 -1054.9897   16    - -835.33998 -1134.8251  35.9%  58.5  261s
   265    86     cutoff   20      -835.33998 -1132.2571  35.5%  58.7  266s
*  266    84              20    -844.7549770 -1132.2571  34.0%  59.2  267s
   275    85     cutoff   20      -844.75498 -1131.1538  33.9%  60.4  274s
   279    89 -1093.1077    8    5 -844.75498 -1131.1538  33.9%  61.5  276s
   288    89 -1089.8664   10    5 -844.75498 -1131.1538  33.9%  62.3  282s
   294    90 -1088.4111   12    - -844.75498 -1131.1538  33.9%  62.6  285s
   299    88 -1083.4258   13    - -844.75498 -1131.1538  33.9%  63.5  291s
   305    91 -1072.0744   15    - -844.75498 -1126.0530  33.3%  63.9  298s
   314    88 -1030.0744   15    - -844.75498 -1120.3794  32.6%  64.5  309s
   326    97 -1028.7613   15    2 -844.75498 -1117.1270  32.2%  64.4  321s
   332   105 -986.62694   16    - -844.75498 -1117.1270  32.2%  64.3  327s
   346   107 -905.50263   19    1 -844.75498 -1117.1270  32.2%  64.7  333s
   351   109 -1043.7285   17    2 -844.75498 -1117.1270  32.2%  65.1  337s
   356   110     cutoff   20      -844.75498 -1117.1270  32.2%  65.0  343s
*  358   110              20    -845.9849776 -1117.1270  32.1%  65.7  345s
*  359   108              20    -861.6599764 -1117.1270  29.6%  65.7  347s
   363   109 -1046.2713   18    - -861.65998 -1117.1270  29.6%  65.9  350s
   373   105 -1083.8063   14    - -861.65998 -1101.4201  27.8%  67.0  357s
   389   110 -1039.2603   18    1 -861.65998 -1101.4201  27.8%  66.2  371s
   403   111 -998.79294   17    1 -861.65998 -1099.5351  27.6%  66.1  381s
   415   117 -957.39608   20    - -861.65998 -1096.2896  27.2%  66.4  387s
   424   107     cutoff   20      -861.65998 -1096.2354  27.2%  66.5  391s
   430   113     cutoff   20      -861.65998 -1096.2354  27.2%  66.4  397s
   435   113 -1043.7138   12    1 -861.65998 -1096.2354  27.2%  66.2  405s
   442   120 -1049.4024   11    - -861.65998 -1096.2354  27.2%  65.6  412s
   447   116 -1042.2630   14    1 -861.65998 -1096.2354  27.2%  65.3  417s
   465   118 -1071.9100   18    - -861.65998 -1096.2354  27.2%  63.8  440s
   471   124 -1045.6371   13    - -861.65998 -1096.2354  27.2%  63.5  446s
   481   121 -1032.0172   18    1 -861.65998 -1093.0716  26.9%  62.8  460s
   491   128 -1043.3967   13    - -861.65998 -1092.3975  26.8%  62.9  467s
   499   126     cutoff   20      -861.65998 -1092.0605  26.7%  62.7  478s
   523   131 -1046.4749   11    2 -861.65998 -1091.6817  26.7%  61.6  503s
   537   139 -1047.0000   13    - -861.65998 -1091.5680  26.7%  60.9  524s
   546   151 -1031.9815   14    5 -861.65998 -1091.5673  26.7%  60.4  535s
   556   158 -1023.9667   16    4 -861.65998 -1091.5673  26.7%  60.0  545s
   567   153 -1020.2652   17    3 -861.65998 -1089.4525  26.4%  60.3  557s
   576   156 -1000.9184   19    - -861.65998 -1089.1144  26.4%  60.0  567s
   583   161 -959.74800   18    2 -861.65998 -1089.1144  26.4%  60.0  573s
   586   151     cutoff   19      -861.65998 -1088.3192  26.3%  60.3  576s
   592   157     cutoff   19      -861.65998 -1088.2928  26.3%  60.5  580s
   597   146     cutoff   19      -861.65998 -1088.2153  26.3%  60.4  589s
   615   153 -961.90457   17    3 -861.65998 -1087.9691  26.3%  59.7  614s
   618   160 -977.29839   17    3 -861.65998 -1087.9691  26.3%  59.8  615s
   626   162 -956.68205   19    - -861.65998 -1087.0376  26.2%  59.8  627s
   630   156 -1044.8847    8    3 -861.65998 -1087.0376  26.2%  59.9  632s
   641   156 -1079.0352   12    - -861.65998 -1086.6840  26.1%  59.8  648s
   651   163 -1042.9938   14    2 -861.65998 -1085.9831  26.0%  59.8  661s
   656   169     cutoff   19      -861.65998 -1085.9714  26.0%  59.7  665s
   666   158 -1042.4326   15    - -861.65998 -1085.9714  26.0%  59.5  678s
   673   167 -1040.8507   14    2 -861.65998 -1085.9714  26.0%  59.3  687s
   682   163 -1074.7470   16    4 -861.65998 -1085.9714  26.0%  59.2  702s
   692   172 -1055.0299   18    - -861.65998 -1085.9714  26.0%  59.0  718s
   696   174 -1035.3029   16    - -861.65998 -1085.9714  26.0%  59.3  720s
   701   176     cutoff   20      -861.65998 -1084.8430  25.9%  59.3  729s
   713   184 -1024.1892   16    4 -861.65998 -1084.8430  25.9%  59.1  742s
   716   175 -1010.4166   18    2 -861.65998 -1084.0911  25.8%  59.2  745s
   736   181     cutoff   19      -861.65998 -1083.5449  25.8%  59.0  761s
   751   189 -1075.0438   12    8 -861.65998 -1083.1785  25.7%  59.3  774s
   759   188 -1074.2425   13    6 -861.65998 -1083.1785  25.7%  59.9  778s
   774   189 -1056.4761   15    5 -861.65998 -1083.1785  25.7%  59.7  794s
   781   194 -1049.9128   16    4 -861.65998 -1083.1785  25.7%  59.6  806s
   790   195 -1026.7611   18    2 -861.65998 -1083.1785  25.7%  59.5  818s
   800   202     cutoff   20      -861.65998 -1082.6906  25.7%  59.6  831s
   817   208 -1012.6780   16    4 -861.65998 -1082.6906  25.7%  59.7  840s
   824   206 -993.05228   17    3 -861.65998 -1082.2325  25.6%  60.0  845s
   831   207     cutoff   19      -861.65998 -1082.2325  25.6%  60.4  851s
   837   206 -1039.7595   16    2 -861.65998 -1082.2325  25.6%  60.4  859s
   846   206 -999.29441   16    - -861.65998 -1082.2325  25.6%  60.5  871s
   866   203 -995.74074   16    - -861.65998 -1082.2325  25.6%  60.0  894s
   880   205 -990.33590   16    - -861.65998 -1080.2339  25.4%  60.1  915s
   895   211 -1034.0553   15    - -861.65998 -1079.4847  25.3%  59.8  924s
   913   209     cutoff   20      -861.65998 -1079.0248  25.2%  59.7  942s
   927   220 -1034.0287   13    - -861.65998 -1077.0797  25.0%  59.9  958s
   943   213 -1042.8887   16    - -861.65998 -1075.6304  24.8%  60.1  971s
   947   222     cutoff   20      -861.65998 -1075.6304  24.8%  60.2  977s
   952   226 -1038.9733   16    - -861.65998 -1072.7588  24.5%  60.2  987s
   963   225 -1019.9657   16    3 -861.65998 -1071.8286  24.4%  60.4  997s
   978   229 -987.82505   17    3 -861.65998 -1071.4128  24.3%  60.8 1015s
   987   237 -877.86698   19    1 -861.65998 -1070.9965  24.3%  61.2 1021s
  1007   230     cutoff   20      -861.65998 -1070.9525  24.3%  61.8 1039s
* 1011   230              20    -864.1149767 -1070.9525  23.9%  62.0 1040s
  1029   232 -997.10288   18    1 -864.11498 -1069.7850  23.8%  62.3 1060s
  1054   231     cutoff   20      -864.11498 -1069.7850  23.8%  62.5 1077s
  1067   242 -948.81341   19    1 -864.11498 -1069.7850  23.8%  62.5 1088s
  1076   234     cutoff   20      -864.11498 -1068.6228  23.7%  62.9 1099s
  1091   248     cutoff   20      -864.11498 -1064.2170  23.2%  62.7 1115s
  1099   234     cutoff   20      -864.11498 -1063.1828  23.0%  62.6 1127s
  1121   246 -910.93552   18    2 -864.11498 -1061.2457  22.8%  62.3 1160s
  1137   250     cutoff   20      -864.11498 -1056.2594  22.2%  62.8 1172s
  1160   241 -980.84648   16    - -864.11498 -1055.6278  22.2%  62.7 1194s
  1195   233     cutoff   20      -864.11498 -1054.8059  22.1%  62.0 1246s
  1219   258 -1047.2149    5    2 -864.11498 -1054.8059  22.1%  61.6 1273s
  1230   254     cutoff   20      -864.11498 -1052.2247  21.8%  61.5 1289s
  1245   273 -1021.8069   18    - -864.11498 -1051.1283  21.6%  61.5 1306s
  1254   259 -1046.2133    9    - -864.11498 -1050.4153  21.6%  61.8 1317s
  1281   268 -1004.7991   17    - -864.11498 -1050.4153  21.6%  61.1 1356s
  1293   289 -1040.4837   15    5 -864.11498 -1050.4153  21.6%  61.0 1370s
  1297   278 -1001.7931   17    - -864.11498 -1049.3097  21.4%  61.0 1379s
  1313   277     cutoff   19      -864.11498 -1048.7151  21.4%  61.1 1400s
  1322   287 -872.36998   20    - -864.11498 -1048.7151  21.4%  61.0 1415s
  1344   281 -959.79206   18    2 -864.11498 -1048.7151  21.4%  60.5 1443s
  1350   289     cutoff   20      -864.11498 -1048.7151  21.4%  60.6 1447s
  1357   285 -959.88316   19    - -864.11498 -1047.6970  21.2%  60.8 1459s
  1380   288     cutoff   19      -864.11498 -1047.2118  21.2%  61.0 1488s
  1385   294 -1032.5397   15    5 -864.11498 -1047.2118  21.2%  61.3 1490s
  1388   300     cutoff   19      -864.11498 -1047.2102  21.2%  61.4 1497s
  1393   303 -1004.8629   18    - -864.11498 -1047.1703  21.2%  61.4 1500s
  1402   298 -1042.6996    9    7 -864.11498 -1047.1703  21.2%  61.7 1508s
  1430   304 -1041.3422   14    4 -864.11498 -1047.1703  21.2%  61.3 1535s
  1455   300 -1007.4938   19    - -864.11498 -1046.8624  21.1%  61.1 1563s
  1471   314     cutoff   20      -864.11498 -1046.7480  21.1%  61.0 1581s
  1485   293     cutoff   19      -864.11498 -1046.1416  21.1%  61.1 1602s
  1510   289     cutoff   20      -864.11498 -1045.5345  21.0%  60.9 1645s
  1545   302 -1000.2905   15    - -864.11498 -1044.5724  20.9%  60.2 1701s
  1572   312     cutoff   19      -864.11498 -1044.5290  20.9%  60.1 1740s
  1607   322 -936.18901   19    1 -864.11498 -1044.0064  20.8%  59.6 1795s
  1621   338 -996.59374   16    - -864.11498 -1043.8456  20.8%  59.6 1814s
  1627   336     cutoff   20      -864.11498 -1043.7818  20.8%  59.6 1823s
  1650   334 -898.37278   19    1 -864.11498 -1043.6808  20.8%  59.6 1856s
  1683   337     cutoff   20      -864.11498 -1043.3539  20.7%  59.5 1907s
  1693   345 -915.08077   18    2 -864.11498 -1043.0775  20.7%  59.6 1913s
  1707   347     cutoff   20      -864.11498 -1043.0217  20.7%  59.4 1935s
  1732   354 -1037.0541   13    - -864.11498 -1042.8430  20.7%  59.0 1970s
  1755   366 -1005.7245   17    - -864.11498 -1042.6553  20.7%  58.8 2007s
  1765   377 -990.41469   18    - -864.11498 -1042.5460  20.6%  58.9 2017s
  1776   374 -876.54819   19    1 -864.11498 -1042.5431  20.6%  59.3 2032s
  1790   383     cutoff   20      -864.11498 -1042.4594  20.6%  59.2 2043s
  1804   374 -938.42078   18    - -864.11498 -1042.4326  20.6%  59.1 2067s
  1817   389     cutoff   20      -864.11498 -1042.3522  20.6%  58.9 2079s
  1825   386 -1039.3978   13    - -864.11498 -1042.3179  20.6%  59.0 2100s
  1847   398     cutoff   20      -864.11498 -1042.2025  20.6%  59.2 2122s
  1866   391     cutoff   20      -864.11498 -1042.1167  20.6%  59.3 2149s
  1901   396 -1035.4365    6    - -864.11498 -1041.8560  20.6%  59.2 2197s
  1909   410     cutoff   20      -864.11498 -1041.7026  20.6%  59.3 2202s
  1921   396 -987.06558   20    - -864.11498 -1041.6627  20.5%  59.5 2222s
  1953   388     cutoff   20      -864.11498 -1041.3600  20.5%  59.6 2269s
  1973   405     cutoff   20      -864.11498 -1041.1248  20.5%  59.5 2291s
  1990   383     cutoff   20      -864.11498 -1041.0024  20.5%  59.5 2325s
  2028   404 -995.94620   18    2 -864.11498 -1040.8061  20.4%  59.4 2385s
* 2042   423              20    -871.2799774 -1040.7394  19.4%  59.5 2392s
  2055   405     cutoff   19      -871.27998 -1040.6155  19.4%  59.7 2413s
  2066   418     cutoff   20      -871.27998 -1040.1377  19.4%  59.7 2428s
  2079   408 -1028.0134   16    - -871.27998 -1040.0482  19.4%  59.7 2467s
  2100   427     cutoff   20      -871.27998 -1039.8451  19.3%  59.7 2484s
  2114   414     cutoff   20      -871.27998 -1039.8284  19.3%  59.7 2512s
  2137   438     cutoff   20      -871.27998 -1039.7865  19.3%  59.6 2536s
  2155   428 -1034.6002    8    5 -871.27998 -1039.7738  19.3%  59.6 2564s
  2171   452 -871.77998   20    - -871.27998 -1039.5607  19.3%  59.4 2580s
  2185   438 -1023.5911   14    5 -871.27998 -1039.5405  19.3%  59.5 2600s
  2212   447     cutoff   20      -871.27998 -1039.5009  19.3%  59.5 2646s
  2219   452     cutoff   20      -871.27998 -1039.4538  19.3%  59.5 2652s
  2236   448 -950.81607   18    2 -871.27998 -1039.3534  19.3%  59.5 2686s
  2243   459 -989.77844   19    - -871.27998 -1038.9793  19.2%  59.5 2697s
  2263   465     cutoff   19      -871.27998 -1038.8850  19.2%  59.5 2729s
  2299   466     cutoff   20      -871.27998 -1038.6938  19.2%  59.4 2768s
  2316   484     cutoff   20      -871.27998 -1038.6563  19.2%  59.5 2785s
  2324   474     cutoff   20      -871.27998 -1038.5775  19.2%  59.6 2807s
  2353   475     cutoff   20      -871.27998 -1038.3265  19.2%  59.8 2854s
  2394   483     cutoff   20      -871.27998 -1038.0540  19.1%  59.8 2910s
  2422   493     cutoff   20      -871.27998 -1037.8503  19.1%  59.9 2955s
  2466   495     cutoff   20      -871.27998 -1037.5986  19.1%  60.2 3006s
  2493   505 -989.92568   16    - -871.27998 -1037.5026  19.1%  60.3 3046s
  2511   518     cutoff   20      -871.27998 -1037.3968  19.1%  60.3 3061s
  2525   508 -981.06773   18    1 -871.27998 -1037.2094  19.0%  60.3 3093s
  2544   525 -991.83698   16    - -871.27998 -1037.0611  19.0%  60.1 3113s
  2558   501     cutoff   20      -871.27998 -1037.0611  19.0%  60.1 3150s
  2592   526     cutoff   20      -871.27998 -1036.6795  19.0%  60.0 3205s
  2606   524 -920.08600   19    1 -871.27998 -1036.4461  19.0%  60.3 3235s
  2626   539 -1000.8300   19    - -871.27998 -1036.1896  18.9%  60.3 3256s
  2644   521     cutoff   20      -871.27998 -1036.0811  18.9%  60.5 3296s
  2692   526     cutoff   20      -871.27998 -1035.6970  18.9%  60.4 3359s
  2728   534 -1021.7757   15    4 -871.27998 -1035.3208  18.8%  60.3 3420s
  2745   553     cutoff   20      -871.27998 -1034.8989  18.8%  60.4 3440s
  2767   527     cutoff   20      -871.27998 -1034.8336  18.8%  60.3 3487s
  2796   553     cutoff   20      -871.27998 -1034.7907  18.8%  60.1 3521s
  2824   531 -949.08949   17    1 -871.27998 -1034.6319  18.7%  59.9 3580s
  2869   544     cutoff   20      -871.27998 -1034.2412  18.7%  59.9 3651s
  2910   552     cutoff   20      -871.27998 -1033.9763  18.7%  59.8 3726s
  2925   572     cutoff   20      -871.27998 -1033.9763  18.7%  59.8 3744s
  2944   556     cutoff   19      -871.27998 -1033.7508  18.6%  59.9 3784s
  2965   579     cutoff   20      -871.27998 -1033.0121  18.6%  59.8 3813s
  2981   565     cutoff   20      -871.27998 -1033.0121  18.6%  59.8 3866s
  3010   592     cutoff   20      -871.27998 -1033.0121  18.6%  59.7 3893s
  3032   579 -1029.7588   11    8 -871.27998 -1032.7564  18.5%  59.7 3927s
  3065   595 -991.23036   16    - -871.27998 -1032.6251  18.5%  59.7 3981s
  3095   593 -991.11564   19    - -871.27998 -1032.4207  18.5%  59.6 4041s
  3137   603     cutoff   20      -871.27998 -1032.0675  18.5%  59.8 4104s
  3156   620     cutoff   19      -871.27998 -1031.7467  18.4%  59.9 4124s
  3167   605     cutoff   20      -871.27998 -1031.6825  18.4%  60.0 4165s
  3194   627 -988.98635   15    - -871.27998 -1031.4925  18.4%  60.2 4191s
  3208   615     cutoff   20      -871.27998 -1031.4389  18.4%  60.2 4226s
  3230   639 -998.42799   18    - -871.27998 -1031.4389  18.4%  60.2 4253s
  3250   618 -1024.9938    9    6 -871.27998 -1031.4157  18.4%  60.1 4299s
  3293   617 -1008.3683   17    - -871.27998 -1030.9956  18.3%  60.0 4391s
  3315   646     cutoff   20      -871.27998 -1030.3708  18.3%  59.9 4427s
  3334   625 -999.97469   17    3 -871.27998 -1030.3245  18.3%  60.0 4468s
  3353   657     cutoff   20      -871.27998 -1029.8398  18.2%  60.0 4494s
  3374   647     cutoff   20      -871.27998 -1029.8398  18.2%  59.8 4549s
  3418   653 -992.16689   18    - -871.27998 -1029.3573  18.1%  59.6 4626s
  3461   659 -952.92528   18    1 -871.27998 -1028.9562  18.1%  59.7 4707s
  3509   669     cutoff   20      -871.27998 -1028.2167  18.0%  59.7 4789s
  3529   698 -877.92139   19    1 -871.27998 -1028.0713  18.0%  59.7 4808s
  3554   686     cutoff   20      -871.27998 -1027.8744  18.0%  59.7 4866s
  3588   693     cutoff   20      -871.27998 -1027.0751  17.9%  59.8 4931s
  3629   683     cutoff   20      -871.27998 -1026.8314  17.9%  59.8 5018s
  3675   688     cutoff   20      -871.27998 -1026.6890  17.8%  59.8 5127s
  3735   706     cutoff   20      -871.27998 -1025.8494  17.7%  59.7 5233s
  3758   735 -980.36938   18    - -871.27998 -1024.9316  17.6%  59.7 5256s
  3776   730 -874.70998   20    - -871.27998 -1024.5998  17.6%  59.8 5321s
  3805   749 -938.36938   18    - -871.27998 -1024.5998  17.6%  60.0 5337s
  3821   739     cutoff   20      -871.27998 -1024.0777  17.5%  60.0 5386s
  3842   761     cutoff   18      -871.27998 -1023.9393  17.5%  60.0 5412s
  3858   742 -978.70098   12    - -871.27998 -1023.6858  17.5%  60.0 5469s
  3907   754 -973.42467   15    - -871.27998 -1022.9500  17.4%  59.7 5567s
  3931   786     cutoff   18      -871.27998 -1022.9377  17.4%  59.6 5596s
  3955   761 -976.73542   18    - -871.27998 -1022.6436  17.4%  59.7 5672s
  4004   777 -934.73542   18    - -871.27998 -1021.9159  17.3%  59.8 5770s
  4025   803     cutoff   20      -871.27998 -1020.6293  17.1%  59.7 5795s
  4056   795     cutoff   18      -871.27998 -1020.3512  17.1%  59.8 5869s
  4104   816 -986.78777   17    - -871.27998 -1019.3839  17.0%  59.6 5963s
  4121   838     cutoff   19      -871.27998 -1019.3793  17.0%  59.7 5980s
  4141   815     cutoff   20      -871.27998 -1018.8292  16.9%  59.7 6044s
  4164   841     cutoff   20      -871.27998 -1018.2992  16.9%  59.6 6074s
  4194   821 -979.51291   16    - -871.27998 -1018.2992  16.9%  59.5 6154s
  4238   841     cutoff   19      -871.27998 -1017.7900  16.8%  59.5 6258s
  4287   854 -973.18561   16    - -871.27998 -1015.9039  16.6%  59.5 6361s
  4315   886 -991.31033   18    - -871.27998 -1014.6241  16.5%  59.3 6400s
  4336   868 -1010.4257    7    - -871.27998 -1014.3000  16.4%  59.3 6480s
  4380   878 -977.42070   18    - -871.27998 -1013.6437  16.3%  59.3 6575s
  4397   900     cutoff   19      -871.27998 -1012.4552  16.2%  59.5 6586s
  4425   879 -935.54709   18    2 -871.27998 -1011.5894  16.1%  59.5 6675s
  4451   901     cutoff   19      -871.27998 -1011.2559  16.1%  59.4 6711s
  4479   866     cutoff   19      -871.27998 -1010.4943  16.0%  59.4 6805s
  4513   901 -982.30854   18    - -871.27998 -1010.1345  15.9%  59.4 6843s
  4545   860     cutoff   20      -871.27998 -1007.9436  15.7%  59.5 6942s
  4573   899 -872.24963   19    1 -871.27998 -1007.7947  15.7%  59.4 6986s
  4612   862 -1001.7746   12    - -871.27998 -1007.2499  15.6%  59.3 7081s
  4672   900 -893.89681   19    1 -871.27998 -1007.2499  15.6%  59.2 7185s

Cutting planes:
  MIR: 192
  Lazy constraints: 998384

Explored 4680 nodes (280383 simplex iterations) in 7193.32 seconds
Thread count was 4 (of 4 available processors)

Solution count 10: -871.28 -864.115 -861.66 ... -787.26

Time limit reached
Best objective -8.712799773738e+02, best bound -1.007249853103e+03, gap 15.6058%
